TOUR_SECTION
74
133
31
115
160
168
87
19
101
106
42
5
172
64
49
164
89
174
54
47
70
150
110
1
197
111
68
152
145
126
141
83
35
128
9
8
142
155
48
139
135
117
22
171
149
95
84
161
134
10
67
56
80
12
169
107
4
179
14
176
57
122
200
136
196
85
93
143
183
58
194
46
189
199
109
69
28
13
170
162
45
181
20
154
91
16
72
156
184
65
132
103
17
23
173
25
148
86
163
125
40
44
39
198
118
51
29
105
192
76
123
180
120
190
81
119
82
78
26
166
159
100
79
92
43
193
186
3
21
130
63
188
73
114
158
32
6
129
88
66
7
94
36
24
77
167
127
147
157
121
27
177
97
30
99
146
182
153
38
138
59
98
195
104
96
34
191
140
37
131
18
71
2
41
178
113
116
165
53
33
137
90
50
175
60
112
52
55
11
144
15
62
185
108
124
75
61
151
102
187
-1
EOF